(set-option :produce-models true)
(set-logic QF_LRA)
(set-info :notes | Strip-packing problem.|)
(declare-fun x0 () Real)
(declare-fun y0 () Real)
(declare-fun x1 () Real)
(declare-fun y1 () Real)
(declare-fun x2 () Real)
(declare-fun y2 () Real)
(declare-fun x3 () Real)
(declare-fun y3 () Real)
(declare-fun x4 () Real)
(declare-fun y4 () Real)
(declare-fun x5 () Real)
(declare-fun y5 () Real)
(declare-fun x6 () Real)
(declare-fun y6 () Real)
(declare-fun x7 () Real)
(declare-fun y7 () Real)
(declare-fun x8 () Real)
(declare-fun y8 () Real)
(declare-fun z () Real)
(declare-fun c () Real)
(assert (and (= c z) (and (>= x0 0) 
(and (>= y0 0) 
(and (>= x1 0) 
(and (>= y1 0) 
(and (>= x2 0) 
(and (>= y2 0) 
(and (>= x3 0) 
(and (>= y3 0) 
(and (>= x4 0) 
(and (>= y4 0) 
(and (>= x5 0) 
(and (>= y5 0) 
(and (>= x6 0) 
(and (>= y6 0) 
(and (>= x7 0) 
(and (>= y7 0) 
(and (>= x8 0) 
(and (>= y8 0) 
(and (>= z 0) 
(and (>= c 0) 
(and (<= (+ x0 0.3079841077) z) 
(and (<= 0.7780037265 y0) 
(and (<= y0 1.0) 
(and (<= x0 (- 2.1891957663 0.3079841077)) 
(and (>= x0 0) 
(and (<= (+ x1 0.2970844157) z) 
(and (<= 0.657170361 y1) 
(and (<= y1 1.0) 
(and (<= x1 (- 2.1891957663 0.2970844157)) 
(and (>= x1 0) 
(and (<= (+ x2 0.0105530382) z) 
(and (<= 0.6560158454 y2) 
(and (<= y2 1.0) 
(and (<= x2 (- 2.1891957663 0.0105530382)) 
(and (>= x2 0) 
(and (<= (+ x3 0.4560257076) z) 
(and (<= 0.6256595678 y3) 
(and (<= y3 1.0) 
(and (<= x3 (- 2.1891957663 0.4560257076)) 
(and (>= x3 0) 
(and (<= (+ x4 0.1909751519) z) 
(and (<= 0.5529787237 y4) 
(and (<= y4 1.0) 
(and (<= x4 (- 2.1891957663 0.1909751519)) 
(and (>= x4 0) 
(and (<= (+ x5 0.9265733452) z) 
(and (<= 0.4056380709 y5) 
(and (<= y5 1.0) 
(and (<= x5 (- 2.1891957663 0.9265733452)) 
(and (>= x5 0) 
(and (<= (+ x6 0.6200511445) z) 
(and (<= 0.3663619829 y6) 
(and (<= y6 1.0) 
(and (<= x6 (- 2.1891957663 0.6200511445)) 
(and (>= x6 0) 
(and (<= (+ x7 0.2603975183) z) 
(and (<= 0.3145361842 y7) 
(and (<= y7 1.0) 
(and (<= x7 (- 2.1891957663 0.2603975183)) 
(and (>= x7 0) 
(and (<= (+ x8 0.4012725046) z) 
(and (<= 0.0239186213 y8) 
(and (<= y8 1.0) 
(and (<= x8 (- 2.1891957663 0.4012725046)) 
(and (>= x8 0) 
(and (<= c 2.1891957663) 
(and (or (<= (+ x0 0.3079841077) x1) (or (<= (+ x1 0.2970844157) x0) (or (>= (- y0 0.7780037265) y1) (or (>= (- y1 0.657170361) y0))))) 
(and (or (<= (+ x0 0.3079841077) x2) (or (<= (+ x2 0.0105530382) x0) (or (>= (- y0 0.7780037265) y2) (or (>= (- y2 0.6560158454) y0))))) 
(and (or (<= (+ x0 0.3079841077) x3) (or (<= (+ x3 0.4560257076) x0) (or (>= (- y0 0.7780037265) y3) (or (>= (- y3 0.6256595678) y0))))) 
(and (or (<= (+ x0 0.3079841077) x4) (or (<= (+ x4 0.1909751519) x0) (or (>= (- y0 0.7780037265) y4) (or (>= (- y4 0.5529787237) y0))))) 
(and (or (<= (+ x0 0.3079841077) x5) (or (<= (+ x5 0.9265733452) x0) (or (>= (- y0 0.7780037265) y5) (or (>= (- y5 0.4056380709) y0))))) 
(and (or (<= (+ x0 0.3079841077) x6) (or (<= (+ x6 0.6200511445) x0) (or (>= (- y0 0.7780037265) y6) (or (>= (- y6 0.3663619829) y0))))) 
(and (or (<= (+ x0 0.3079841077) x7) (or (<= (+ x7 0.2603975183) x0) (or (>= (- y0 0.7780037265) y7) (or (>= (- y7 0.3145361842) y0))))) 
(and (or (<= (+ x0 0.3079841077) x8) (or (<= (+ x8 0.4012725046) x0) (or (>= (- y0 0.7780037265) y8) (or (>= (- y8 0.0239186213) y0))))) 
(and (or (<= (+ x1 0.2970844157) x2) (or (<= (+ x2 0.0105530382) x1) (or (>= (- y1 0.657170361) y2) (or (>= (- y2 0.6560158454) y1))))) 
(and (or (<= (+ x1 0.2970844157) x3) (or (<= (+ x3 0.4560257076) x1) (or (>= (- y1 0.657170361) y3) (or (>= (- y3 0.6256595678) y1))))) 
(and (or (<= (+ x1 0.2970844157) x4) (or (<= (+ x4 0.1909751519) x1) (or (>= (- y1 0.657170361) y4) (or (>= (- y4 0.5529787237) y1))))) 
(and (or (<= (+ x1 0.2970844157) x5) (or (<= (+ x5 0.9265733452) x1) (or (>= (- y1 0.657170361) y5) (or (>= (- y5 0.4056380709) y1))))) 
(and (or (<= (+ x1 0.2970844157) x6) (or (<= (+ x6 0.6200511445) x1) (or (>= (- y1 0.657170361) y6) (or (>= (- y6 0.3663619829) y1))))) 
(and (or (<= (+ x1 0.2970844157) x7) (or (<= (+ x7 0.2603975183) x1) (or (>= (- y1 0.657170361) y7) (or (>= (- y7 0.3145361842) y1))))) 
(and (or (<= (+ x1 0.2970844157) x8) (or (<= (+ x8 0.4012725046) x1) (or (>= (- y1 0.657170361) y8) (or (>= (- y8 0.0239186213) y1))))) 
(and (or (<= (+ x2 0.0105530382) x3) (or (<= (+ x3 0.4560257076) x2) (or (>= (- y2 0.6560158454) y3) (or (>= (- y3 0.6256595678) y2))))) 
(and (or (<= (+ x2 0.0105530382) x4) (or (<= (+ x4 0.1909751519) x2) (or (>= (- y2 0.6560158454) y4) (or (>= (- y4 0.5529787237) y2))))) 
(and (or (<= (+ x2 0.0105530382) x5) (or (<= (+ x5 0.9265733452) x2) (or (>= (- y2 0.6560158454) y5) (or (>= (- y5 0.4056380709) y2))))) 
(and (or (<= (+ x2 0.0105530382) x6) (or (<= (+ x6 0.6200511445) x2) (or (>= (- y2 0.6560158454) y6) (or (>= (- y6 0.3663619829) y2))))) 
(and (or (<= (+ x2 0.0105530382) x7) (or (<= (+ x7 0.2603975183) x2) (or (>= (- y2 0.6560158454) y7) (or (>= (- y7 0.3145361842) y2))))) 
(and (or (<= (+ x2 0.0105530382) x8) (or (<= (+ x8 0.4012725046) x2) (or (>= (- y2 0.6560158454) y8) (or (>= (- y8 0.0239186213) y2))))) 
(and (or (<= (+ x3 0.4560257076) x4) (or (<= (+ x4 0.1909751519) x3) (or (>= (- y3 0.6256595678) y4) (or (>= (- y4 0.5529787237) y3))))) 
(and (or (<= (+ x3 0.4560257076) x5) (or (<= (+ x5 0.9265733452) x3) (or (>= (- y3 0.6256595678) y5) (or (>= (- y5 0.4056380709) y3))))) 
(and (or (<= (+ x3 0.4560257076) x6) (or (<= (+ x6 0.6200511445) x3) (or (>= (- y3 0.6256595678) y6) (or (>= (- y6 0.3663619829) y3))))) 
(and (or (<= (+ x3 0.4560257076) x7) (or (<= (+ x7 0.2603975183) x3) (or (>= (- y3 0.6256595678) y7) (or (>= (- y7 0.3145361842) y3))))) 
(and (or (<= (+ x3 0.4560257076) x8) (or (<= (+ x8 0.4012725046) x3) (or (>= (- y3 0.6256595678) y8) (or (>= (- y8 0.0239186213) y3))))) 
(and (or (<= (+ x4 0.1909751519) x5) (or (<= (+ x5 0.9265733452) x4) (or (>= (- y4 0.5529787237) y5) (or (>= (- y5 0.4056380709) y4))))) 
(and (or (<= (+ x4 0.1909751519) x6) (or (<= (+ x6 0.6200511445) x4) (or (>= (- y4 0.5529787237) y6) (or (>= (- y6 0.3663619829) y4))))) 
(and (or (<= (+ x4 0.1909751519) x7) (or (<= (+ x7 0.2603975183) x4) (or (>= (- y4 0.5529787237) y7) (or (>= (- y7 0.3145361842) y4))))) 
(and (or (<= (+ x4 0.1909751519) x8) (or (<= (+ x8 0.4012725046) x4) (or (>= (- y4 0.5529787237) y8) (or (>= (- y8 0.0239186213) y4))))) 
(and (or (<= (+ x5 0.9265733452) x6) (or (<= (+ x6 0.6200511445) x5) (or (>= (- y5 0.4056380709) y6) (or (>= (- y6 0.3663619829) y5))))) 
(and (or (<= (+ x5 0.9265733452) x7) (or (<= (+ x7 0.2603975183) x5) (or (>= (- y5 0.4056380709) y7) (or (>= (- y7 0.3145361842) y5))))) 
(and (or (<= (+ x5 0.9265733452) x8) (or (<= (+ x8 0.4012725046) x5) (or (>= (- y5 0.4056380709) y8) (or (>= (- y8 0.0239186213) y5))))) 
(and (or (<= (+ x6 0.6200511445) x7) (or (<= (+ x7 0.2603975183) x6) (or (>= (- y6 0.3663619829) y7) (or (>= (- y7 0.3145361842) y6))))) 
(and (or (<= (+ x6 0.6200511445) x8) (or (<= (+ x8 0.4012725046) x6) (or (>= (- y6 0.3663619829) y8) (or (>= (- y8 0.0239186213) y6))))) 
(and (or (<= (+ x7 0.2603975183) x8) (or (<= (+ x8 0.4012725046) x7) (or (>= (- y7 0.3145361842) y8) (or (>= (- y8 0.0239186213) y7))))) ))))))))))))))))))))))))))))))))))))))))))))))))))))))))))))))))))))))))))))))))))))))))))))))))))))))))
(minimize c)
(check-sat)
(get-objectives)
(exit)
